12 
13 
8 
8 
10 
9 
7 
10 
11 
6 
8 
9 
12 
6 
7 
7 
13 
10 
6 
10 
6 
8 
3 
9 
10 
15 
8 
8 
7 
2 
4 
5 
13 
5 
9 
7 
7 
10 
8 
14 
6 
14 
8 
3 
12 
7 
11 
11 
7 
10 
11 
6 
7 
10 
10 
10 
10 
8 
8 
10 
6 
5 
15 
5 
10 
8 
8 
6 
8 
13 
9 
8 
7 
10 
6 
5 
9 
5 
12 
12 
7 
4 
15 
6 
13 
7 
6 
5 
11 
8 
5 
4 
14 
9 
9 
5 
8 
11 
6 
6 
